qe/outputs/qe/qe_queries_cbrdelay_obs/T=5,eliminate=[I_0,I_1,I_2,I_3,I_4,C,B,lhs=Q_4].smt2
; benchmark generated from python API
(set-info :status unknown)
(declare-fun S_2 () Real)
(declare-fun L_2 () Real)
(declare-fun A_2 () Real)
(declare-fun L_0 () Real)
(declare-fun S_0 () Real)
(declare-fun A_0 () Real)
(declare-fun S_3 () Real)
(declare-fun A_3 () Real)
(declare-fun L_3 () Real)
(declare-fun S_4 () Real)
(declare-fun L_4 () Real)
(declare-fun A_4 () Real)
(declare-fun Q_4 () Real)
(declare-fun L_1 () Real)
(declare-fun A_1 () Real)
(declare-fun S_1 () Real)
(assert
 (let (($x34 (>= L_0 0.0)))
 (let (($x65777 (<= (+ (* (- 1.0) A_1) (* (/ 1.0 3.0) S_3) (* (/ 2.0 3.0) S_0) L_1) (- 5.0))))
 (let (($x51 (= L_1 L_0)))
 (let ((?x881 (* (- 2.0) L_2)))
 (let ((?x887 (* 2.0 L_1)))
 (let ((?x418 (* (- 1.0) S_4)))
 (let ((?x883 (* (- 2.0) A_1)))
 (let ((?x879 (* 2.0 A_2)))
 (let (($x1646 (<= (+ (* (- 1.0) L_3) A_3 ?x418) 0.0)))
 (let (($x67317 (<= (+ (* (- 1.0) A_2) (* (- 1.0) A_1) S_3 L_2 S_0 L_1) (- 5.0))))
 (let ((?x13723 (* (/ 3.0 2.0) L_3)))
 (let ((?x4814 (* (- (/ 3.0 2.0)) L_1)))
 (let ((?x1008 (* (- 1.0) S_0)))
 (let ((?x5822 (* (/ 3.0 2.0) A_1)))
 (let ((?x13148 (* (- (/ 3.0 2.0)) A_3)))
 (let (($x41853 (<= (+ ?x13148 ?x5822 S_2 ?x1008 ?x4814 ?x13723) 0.0)))
 (let ((?x503 (* (- 1.0) L_1)))
 (let ((?x451 (* (- 1.0) S_1)))
 (let ((?x490 (* (- 1.0) L_2)))
 (let ((?x403 (* (- 1.0) A_3)))
 (let (($x1328 (<= (+ ?x403 A_2 A_1 ?x490 ?x451 ?x503 L_3) 0.0)))
 (let (($x71 (= L_3 L_2)))
 (let (($x44843 (<= (+ (* (- 2.0) A_3) ?x879 S_1 ?x1008 ?x881 (* 2.0 L_3)) 0.0)))
 (let (($x64927 (<= (+ (* (- 2.0) A_3) ?x879 A_1 ?x881 ?x1008 ?x503 (* 2.0 L_3)) (- 5.0))))
 (let (($x40974 (<= (+ ?x403 A_1 S_1 ?x1008 ?x503 L_3) 0.0)))
 (let (($x1352 (<= (+ ?x403 A_2 A_1 (* (- 1.0) A_0) ?x490 ?x503 L_3 L_0) 0.0)))
 (let (($x67380 (or $x71 (<= (+ ?x403 (* (/ 4.0 3.0) S_2) (* (- (/ 1.0 3.0)) S_0) L_3) (- 5.0)))))
 (let ((?x2262 (* 3.0 L_3)))
 (let ((?x982 (* (- 3.0) L_1)))
 (let ((?x1337 (* (- 2.0) S_1)))
 (let ((?x2303 (* 2.0 S_3)))
 (let ((?x981 (* 3.0 A_1)))
 (let ((?x2260 (* (- 3.0) A_3)))
 (let ((?x1332 (* 2.0 L_3)))
 (let ((?x924 (* (- 2.0) L_1)))
 (let ((?x929 (* 2.0 A_1)))
 (let ((?x1331 (* (- 2.0) A_3)))
 (let (($x44301 (<= (+ ?x1331 ?x929 S_3 ?x1008 ?x924 ?x1332) 0.0)))
 (let (($x34930 (<= (+ ?x1331 ?x879 ?x929 ?x881 (* (- 1.0) S_2) ?x1008 ?x924 ?x1332) 0.0)))
 (let (($x34895 (<= (+ ?x403 ?x879 A_1 ?x418 ?x881 ?x1008 ?x503 L_3) 0.0)))
 (let ((?x2295 (* 5.0 L_3)))
 (let ((?x1009 (* (- 5.0) L_1)))
 (let ((?x2065 (* (- 2.0) S_0)))
 (let ((?x1007 (* 5.0 A_1)))
 (let ((?x2384 (* (- 5.0) A_3)))
 (let ((?x2263 (* (- 2.0) L_4)))
 (let ((?x2261 (* 2.0 A_4)))
 (let ((?x2199 (* (- 2.0) Q_4)))
 (let (($x2144 (<= (+ ?x2199 ?x2261 ?x2263 ?x2384 ?x1007 ?x2065 ?x1009 ?x2295) 0.0)))
 (let (($x66753 (<= (+ ?x403 A_2 ?x490 (* (/ 1.0 2.0) S_1) (* (- (/ 1.0 2.0)) S_0) L_3) (- 5.0))))
 (let ((?x564 (* (- 1.0) L_0)))
 (let ((?x7555 (* (- (/ 2.0 3.0)) S_0)))
 (let ((?x50339 (* (/ 2.0 3.0) S_2)))
 (let (($x49847 (<= (+ ?x403 A_1 ?x50339 ?x7555 L_3 ?x564) 0.0)))
 (let (($x1309 (not $x51)))
 (let ((?x6508 (* (/ 3.0 2.0) L_1)))
 (let ((?x6507 (* (- (/ 3.0 2.0)) A_1)))
 (let (($x41196 (<= (+ (* (/ 3.0 2.0) A_3) ?x6507 ?x418 S_0 ?x6508 (* (- (/ 3.0 2.0)) L_3)) 0.0)))
 (let ((?x13730 (* (- (/ 1.0 2.0)) L_3)))
 (let ((?x2662 (* (/ 1.0 2.0) L_1)))
 (let ((?x440 (* (- 1.0) S_2)))
 (let ((?x5675 (* (- (/ 1.0 2.0)) A_1)))
 (let ((?x13728 (* (/ 1.0 2.0) A_3)))
 (let (($x44663 (<= (+ ?x2260 ?x981 (* (- 2.0) A_0) ?x2303 ?x982 ?x2262 (* 2.0 L_0)) 0.0)))
 (let ((?x2204 (* (- 2.0) L_3)))
 (let ((?x4754 (* 2.0 S_0)))
 (let ((?x2457 (* (- 2.0) S_3)))
 (let ((?x2205 (* 2.0 A_3)))
 (let (($x65507 (<= (+ ?x403 (* (- 2.0) A_0) (* 3.0 S_1) L_3 (* 2.0 L_0)) (- 5.0))))
 (let (($x67015 (or $x71 (<= (+ ?x403 A_2 (* (- 1.0) A_0) ?x490 S_1 L_3 L_0) (- 5.0)) $x65507)))
 (let (($x67000 (or $x71 (<= (+ ?x403 (* (/ 3.0 2.0) S_2) (* (- (/ 1.0 2.0)) S_1) L_3) (- 5.0)))))
 (let (($x143305 (or $x71 (<= (+ ?x403 (* (- 1.0) A_1) L_1 (* 2.0 S_2) L_3) (- 5.0)))))
 (let (($x38714 (<= (+ ?x2260 (* 3.0 A_2) S_3 ?x451 (* (- 3.0) L_2) ?x2262) 0.0)))
 (let (($x64608 (<= (+ (* (- 1.0) A_2) (* (/ 2.0 3.0) S_3) (* (/ 1.0 3.0) S_0) L_2) (- 5.0))))
 (let (($x61 (= L_2 L_1)))
 (let (($x66916 (or $x61 (<= (+ (* (- 2.0) A_2) A_1 S_3 ?x503 (* 2.0 L_2)) (- 10.0)) $x64608)))
 (let (($x65905 (<= (+ ?x403 (* (- (/ 1.0 2.0)) A_0) (* (/ 3.0 2.0) S_2) L_3 (* (/ 1.0 2.0) L_0)) (- 5.0))))
 (let (($x66877 (or $x61 (<= (+ (* (- 1.0) A_2) A_1 ?x503 L_2) (- 10.0)) (<= (+ (* (- 1.0) A_2) S_0 L_2) (- 15.0)))))
 (let (($x1069 (<= (+ A_2 (* (- 1.0) S_3) ?x490) 0.0)))
 (let (($x367 (not (<= 0.0 (+ ?x503 L_0)))))
 (let (($x41482 (<= (+ ?x2260 (* 3.0 A_2) S_2 ?x1008 (* (- 3.0) L_2) ?x2262) 0.0)))
 (let (($x141986 (or $x71 (<= (+ L_3 ?x403 A_2 (* (- 1.0) A_1) S_2 L_1 ?x490) 0.0))))
 (let (($x36487 (<= (+ A_2 ?x418 ?x490) (- 5.0))))
 (let (($x6519 (<= (+ (* (/ 1.0 2.0) A_1) (* (- (/ 1.0 2.0)) S_4) (* (- (/ 1.0 2.0)) L_1)) (- 5.0))))
 (let (($x66582 (or $x1646 $x6519 $x36487 (<= (+ (* (- (/ 1.0 3.0)) S_4) (* (/ 1.0 3.0) S_0)) (- 5.0)))))
 (let (($x3701 (<= (+ ?x503 A_1 ?x440) 0.0)))
 (let ((?x2632 (* 4.0 L_3)))
 (let ((?x1003 (* (- 4.0) L_2)))
 (let ((?x1000 (* 4.0 A_2)))
 (let ((?x2341 (* (- 4.0) A_3)))
 (let ((?x2212 (* (- 3.0) L_3)))
 (let ((?x983 (* 3.0 L_2)))
 (let ((?x980 (* (- 3.0) A_2)))
 (let ((?x2213 (* 3.0 A_3)))
 (let (($x40150 (<= (+ ?x2205 (* (- 2.0) A_2) A_1 ?x418 ?x503 (* 2.0 L_2) ?x2204) 0.0)))
 (let ((?x885 (* 2.0 L_2)))
 (let ((?x889 (* (- 2.0) A_2)))
 (let ((?x477 (* (- 1.0) L_3)))
 (let (($x63549 (<= (+ ?x477 A_3 ?x889 A_1 ?x503 ?x885) (- 5.0))))
 (let (($x139479 (or $x71 (<= (+ ?x1331 ?x879 (* (- 1.0) A_0) S_2 ?x881 ?x1332 L_0) 0.0))))
 (let (($x27070 (<= (+ ?x477 A_3 (* (- 1.0) A_2) A_1 (* (- 1.0) S_3) ?x503 L_2) 0.0)))
 (let (($x141537 (or $x61 $x27070 (<= (+ ?x2205 ?x889 (* (- 1.0) S_3) S_0 ?x885 ?x2204) 0.0))))
 (let (($x140120 (or $x51 $x1646 (<= (+ A_2 (* (- 1.0) A_1) ?x418 S_2 L_1 ?x490) 0.0))))
 (let (($x66288 (or $x51 $x71 (<= (+ (* (- (/ 1.0 2.0)) A_3) ?x5675 S_2 ?x2662 (* (/ 1.0 2.0) L_3)) (- 5.0)))))
 (let ((?x989 (* (- 3.0) L_2)))
 (let ((?x1033 (* (- 1.0) A_0)))
 (let ((?x986 (* 3.0 A_2)))
 (let ((?x658 (+ L_2 ?x477)))
 (let (($x295 (<= 0.0 ?x658)))
 (let (($x293 (not $x295)))
 (let (($x18006 (<= (+ A_1 (* (- 1.0) S_3) ?x503) (- 5.0))))
 (let (($x49805 (or $x1646 (<= (+ ?x418 (* 2.0 S_1) ?x1008) 0.0) (<= (+ ?x879 (* (- 2.0) S_4) ?x881 S_1 ?x1008) 0.0))))
 (let (($x17400 (<= (+ A_3 (* (- 1.0) A_2) (* (- (/ 1.0 3.0)) S_4) (* (/ 1.0 3.0) S_0)) 0.0)))
 (let (($x60211 (<= (+ (* (- 1.0) A_2) (* (/ 1.0 2.0) S_3) (* (/ 1.0 2.0) S_1) L_2) (- 5.0))))
 (let (($x141485 (or $x61 (<= (+ A_3 (* (- 1.0) A_2) ?x418 S_2 L_2 ?x477) 0.0))))
 (let (($x47423 (or $x1646 (<= (+ ?x1033 (* (- (/ 1.0 2.0)) S_4) (* (/ 3.0 2.0) S_1) L_0) 0.0) (<= (+ A_2 ?x1033 ?x418 ?x490 S_1 L_0) 0.0))))
 (let (($x65580 (or $x51 $x1646 (<= (+ (* (- 1.0) A_1) ?x418 (* 2.0 S_2) L_1) (- 5.0)))))
 (let ((?x9360 (* 2.0 L_0)))
 (let ((?x2296 (* 2.0 S_1)))
 (let ((?x8943 (* (- 2.0) A_0)))
 (let (($x142102 (or $x71 (<= (+ ?x1331 ?x929 ?x8943 (* 2.0 S_2) ?x924 ?x1332 ?x9360) 0.0))))
 (let (($x44847 (<= (+ A_3 (* (- 1.0) A_2) (* (- 1.0) S_3) S_1 L_2 ?x477) 0.0)))
 (let (($x141395 (or $x51 $x1069 (<= (+ A_3 (* (- 1.0) A_1) ?x2457 ?x2296 L_1 ?x477) 0.0))))
 (let ((?x388 (* (- 1.0) L_4)))
 (let ((?x651 (+ L_3 ?x388)))
 (let (($x57420 (<= 0.0 ?x651)))
 (let (($x57423 (not $x57420)))
 (let (($x142110 (or $x71 (<= (+ ?x403 A_2 ?x1033 L_4 ?x490 S_1 L_0) 0.0) $x57423)))
 (let (($x140182 (or $x51 (<= (+ A_2 (* (- 1.0) A_1) ?x440 S_0 L_1 ?x490) 0.0))))
 (let (($x142332 (or $x1646 (<= (+ ?x1033 (* (- 2.0) S_4) (* 3.0 S_2) L_0) 0.0))))
 (let (($x33725 (<= (+ ?x986 (* (- 3.0) A_1) ?x418 S_0 (* 3.0 L_1) ?x989) 0.0)))
 (let ((?x997 (* 4.0 L_2)))
 (let ((?x996 (* (- 4.0) L_1)))
 (let ((?x995 (* 4.0 A_1)))
 (let ((?x994 (* (- 4.0) A_2)))
 (let (($x66393 (or $x71 (<= (+ ?x1331 ?x879 (* (- 1.0) A_1) S_3 L_1 ?x881 ?x1332) 0.0))))
 (let (($x70170 (or $x61 $x3701 (<= (+ A_3 (* (- 1.0) A_2) ?x477 ?x440 L_2 S_0) 0.0))))
 (let (($x141826 (or $x51 (<= (+ ?x879 ?x883 (* (- 1.0) S_3) S_0 ?x887 ?x881) 0.0))))
 (let (($x141585 (or $x61 (<= (+ (* (- 1.0) A_2) A_1 ?x1033 S_1 ?x503 L_2 L_0) 0.0))))
 (let (($x64429 (<= (+ (* (- 1.0) A_1) (* (/ 1.0 2.0) S_2) (* (/ 1.0 2.0) S_0) L_1) (- 5.0))))
 (let (($x64192 (<= (+ (* (- 1.0) A_2) (* (/ 3.0 2.0) S_1) (* (- (/ 1.0 2.0)) S_0) L_2) (- 5.0))))
 (let (($x34301 (or $x1069 (<= (+ (* (- 1.0) S_3) (* (/ 3.0 2.0) S_1) (* (- (/ 1.0 2.0)) S_0)) 0.0))))
 (let ((?x5360 (* (/ 3.0 4.0) S_0)))
 (let ((?x411 (* (- 1.0) A_1)))
 (let ((?x5390 (* (- (/ 1.0 4.0)) L_4)))
 (let ((?x5389 (* (/ 1.0 4.0) A_4)))
 (let ((?x5387 (* (- (/ 1.0 4.0)) Q_4)))
 (let ((?x5405 (+ ?x5387 ?x5389 ?x5390 ?x411 ?x5360 L_1)))
 (let ((?x8174 (* (/ 1.0 2.0) S_2)))
 (let ((?x5620 (* (- (/ 1.0 2.0)) L_4)))
 (let ((?x5173 (* (/ 1.0 2.0) A_4)))
 (let ((?x5581 (* (- (/ 1.0 2.0)) Q_4)))
 (let ((?x8177 (+ ?x5581 ?x5173 ?x5620 ?x403 ?x8174 L_3)))
 (let (($x58665 (<= 0.0 ?x8177)))
 (let ((?x8165 (* (/ 3.0 2.0) S_2)))
 (let ((?x5601 (* (/ 1.0 2.0) L_4)))
 (let ((?x5597 (* (- (/ 1.0 2.0)) A_4)))
 (let ((?x5545 (* (/ 1.0 2.0) Q_4)))
 (let (($x1150 (<= Q_4 0.0)))
 (let ((?x2792 (* 3.0 S_3)))
 (let ((?x2206 (* 2.0 L_4)))
 (let ((?x2203 (* (- 2.0) A_4)))
 (let ((?x2181 (* 2.0 Q_4)))
 (let ((?x5028 (+ ?x2181 ?x2203 ?x2206 ?x411 ?x2792 L_1)))
 (let (($x141762 (or $x51 (<= (+ A_2 ?x411 (* (- 1.0) S_3) S_1 L_1 ?x490) 0.0))))
 (let ((?x21019 (+ ?x5581 ?x5173 (* (- (/ 1.0 2.0)) A_2) (* (/ 1.0 2.0) L_2) ?x5620 ?x411 S_0 L_1)))
 (let ((?x407 (* (- 1.0) A_2)))
 (let ((?x395 (* (- 1.0) Q_4)))
 (let (($x67618 (or $x61 (<= (+ ?x395 A_4 L_3 ?x403 ?x388 ?x407 S_1 L_2) (- 5.0)))))
 (let (($x139615 (or $x61 (<= (+ ?x395 A_4 L_3 ?x403 ?x388 ?x407 A_1 ?x503 L_2) (- 5.0)) (<= (+ ?x2199 ?x2261 ?x1332 ?x1331 ?x2263 ?x407 S_0 L_2) (- 5.0)))))
 (let (($x2100 (<= (+ ?x395 A_4 ?x388 ?x403 A_1 (* (- 1.0) S_3) ?x503 L_3) 0.0)))
 (let (($x139291 (or $x1069 $x2100 (<= (+ ?x2199 ?x2261 ?x1332 ?x1331 ?x2263 (* (- 1.0) S_3) S_0) 0.0))))
 (let (($x14407 (<= (+ ?x395 (* (- 1.0) A_4) A_2 ?x490 L_4 ?x929 ?x8943 ?x924 ?x9360) 0.0)))
 (let ((?x2805 (* 3.0 L_0)))
 (let ((?x2804 (* (- 3.0) A_0)))
 (let ((?x399 (* (- 1.0) A_4)))
 (let ((?x2264 (* (- 3.0) Q_4)))
 (let (($x81 (= L_4 L_3)))
 (let (($x141296 (or $x81 (<= (+ ?x399 ?x477 A_3 L_4 A_1 ?x1033 ?x503 L_0) 0.0) (<= (+ ?x2264 ?x399 L_4 ?x995 ?x2804 ?x996 ?x2805) 0.0) $x14407)))
 (let (($x141429 (or $x51 (<= (+ ?x395 A_4 L_3 ?x403 ?x388 ?x411 S_0 L_1) (- 5.0)))))
 (let (($x58666 (not $x58665)))
 (let (($x63139 (or $x51 $x1150 $x58666 (<= (+ Q_4 ?x399 ?x477 A_3 L_4 ?x411 S_2 L_1) (- 5.0)))))
 (let (($x2197 (<= (+ ?x2199 A_4 L_3 ?x403 ?x388 A_1 (* (- 1.0) S_3) ?x503) 0.0)))
 (let (($x71472 (or $x81 (<= (+ ?x399 ?x477 A_3 L_4 A_1 ?x451 ?x503) 0.0) (<= (+ ?x2264 ?x399 L_4 ?x995 (* (- 3.0) S_1) ?x996) 0.0) (<= (+ ?x395 ?x399 A_2 ?x490 L_4 ?x929 ?x1337 ?x924) 0.0))))
 (let (($x59242 (<= 0.0 (+ ?x395 ?x2203 ?x2206 ?x2213 ?x411 L_1 ?x2212))))
 (let (($x58951 (<= 0.0 (+ ?x395 ?x399 L_4 ?x2205 ?x407 L_2 ?x2204))))
 (let (($x11925 (<= (+ Q_4 (* 3.0 A_4) (* (- 3.0) L_4) ?x2341 S_0 ?x2632) 0.0)))
 (let (($x140649 (or $x71 (<= (+ ?x503 Q_4 ?x2261 A_1 L_4 ?x2260) 0.0) $x11925 $x57423 $x58951)))
 (let (($x59371 (<= (+ ?x395 A_4 A_2 ?x490 ?x388 ?x1331 ?x1332) (- 10.0))))
 (let ((?x5463 (* (- (/ 3.0 4.0)) L_4)))
 (let ((?x5462 (* (/ 3.0 4.0) A_4)))
 (let ((?x5464 (* (- (/ 3.0 4.0)) Q_4)))
 (let (($x58544 (<= (+ ?x5464 ?x5462 ?x5463 ?x403 (* (/ 1.0 4.0) S_0) L_3) (- 5.0))))
 (let (($x144465 (or $x71 (<= (+ ?x503 ?x2199 ?x2261 A_1 ?x2263 ?x2260 ?x2262) (- 15.0)) $x58544 $x59371)))
 (let (($x329 (<= 0.0 (+ ?x395 A_4 ?x388 ?x403 ?x407 A_1 ?x503 L_2 L_3))))
 (let (($x68666 (or $x51 $x329 (<= (+ Q_4 ?x399 L_4 ?x879 ?x883 S_2 ?x887 ?x881) 0.0) $x1150)))
 (let ((?x988 (* 3.0 L_1)))
 (let ((?x987 (* (- 3.0) A_1)))
 (let (($x139736 (or $x51 $x329 (<= (+ Q_4 ?x399 L_4 ?x986 ?x987 S_1 ?x988 ?x989) 0.0) $x1150)))
 (let ((?x665 (+ L_1 ?x490)))
 (let (($x56870 (<= 0.0 ?x665)))
 (let ((?x1002 (* 4.0 L_1)))
 (let ((?x1001 (* (- 4.0) A_1)))
 (let (($x71159 (or $x51 $x329 (<= (+ Q_4 ?x399 L_4 ?x1000 ?x1001 S_0 ?x1002 ?x1003) 0.0) $x1150)))
 (let (($x2765 (<= (+ (* 3.0 Q_4) ?x399 L_4 ?x883 (* 3.0 S_2) ?x887) 0.0)))
 (let (($x2110 (<= (+ ?x2181 ?x399 ?x477 A_3 L_4 ?x411 S_2 L_1) 0.0)))
 (let (($x2656 (<= (+ (* 3.0 Q_4) A_4 ?x388 ?x1001 (* 3.0 S_0) ?x1002) 0.0)))
 (let (($x71287 (or $x51 (<= (+ Q_4 A_4 ?x407 L_2 ?x388 ?x883 ?x4754 ?x887) 0.0))))
 (let (($x140268 (or $x81 $x1069 (<= (+ ?x2264 A_4 ?x388 ?x929 (* (- 3.0) S_3) ?x924) 0.0))))
 (let (($x61647 (or $x81 (= (+ L_1 ?x395 ?x2203 ?x411 ?x2206 ?x2213 ?x2212) 0.0) (not $x59242))))
 (let (($x67745 (or (<= (+ ?x395 ?x2261 ?x1332 ?x1331 ?x2263 ?x407 S_0 L_2) 0.0) $x56870 (<= 0.0 (+ ?x399 ?x477 A_3 L_4 A_2 ?x411 L_1 ?x490)))))
 (let (($x57591 (<= (+ Q_4 ?x399 ?x477 A_3 L_4) (- 5.0))))
 (let (($x9921 (<= (+ ?x395 A_4 A_2 ?x490 ?x388 (* (- 2.0) S_4)) 0.0)))
 (let (($x68918 (or $x81 $x1646 (<= (+ ?x2264 ?x2261 ?x2263 A_1 (* (- 3.0) S_4) ?x503) 0.0) $x9921)))
 (let ((?x1010 (* 5.0 L_2)))
 (let ((?x1006 (* (- 5.0) A_2)))
 (let (($x77955 (or $x81 (<= (+ Q_4 ?x2203 ?x2204 ?x2205 ?x2206 A_1 ?x1008 ?x503) 0.0) (<= (+ ?x2264 ?x2203 ?x2206 ?x1007 (* (- 3.0) S_0) ?x1009) 0.0) (<= (+ ?x399 A_2 ?x490 L_4 A_1 ?x1008 ?x503) 0.0))))
 (let (($x1305 (not $x71)))
 (let (($x11451 (<= (+ Q_4 ?x399 ?x407 L_2 L_4 ?x2205 ?x883 ?x2296 ?x887 ?x2204) 0.0)))
 (let (($x327 (not $x329)))
 (let (($x68323 (or $x71 $x327 $x1150 (<= (+ Q_4 ?x399 ?x986 ?x989 L_4 ?x1331 ?x929 ?x2065 ?x924 ?x1332) 0.0))))
 (let ((?x4115 (* (/ 1.0 3.0) L_4)))
 (let ((?x4114 (* (- (/ 1.0 3.0)) A_4)))
 (let ((?x4113 (* (/ 1.0 3.0) Q_4)))
 (let (($x62148 (or $x1150 (<= (+ ?x4113 ?x4114 ?x4115 ?x1033 (* (/ 4.0 3.0) S_1) L_0) 0.0) (<= (+ Q_4 ?x399 ?x477 A_3 L_4 ?x1033 S_1 L_0) 0.0) (<= (+ Q_4 ?x399 A_2 ?x490 L_4 ?x8943 ?x2296 ?x9360) 0.0))))
 (let (($x8427 (<= (+ ?x2181 ?x2203 ?x2204 ?x2205 ?x2206 S_2 ?x451) 0.0)))
 (let (($x4583 (<= (+ Q_4 ?x399 L_4 (* 2.0 S_2) ?x451) 0.0)))
 (let (($x74567 (or $x51 $x1150 (<= (+ ?x2181 ?x2203 ?x2206 ?x2213 ?x987 ?x2296 ?x988 ?x2212) 0.0))))
 (let (($x68926 (or $x51 $x1150 (<= (+ ?x2181 ?x2203 ?x2206 A_3 ?x411 ?x2303 L_1 ?x477) 0.0))))
 (let (($x69164 (or $x61 (<= (+ ?x924 ?x395 A_4 ?x929 ?x388 ?x980 ?x983) (- 15.0)) (<= (+ ?x5581 ?x5173 ?x5620 ?x407 (* (/ 1.0 2.0) S_0) L_2) (- 5.0)))))
 (let (($x11768 (<= (+ ?x395 A_4 A_2 ?x490 ?x388 ?x1331 ?x929 (* (- 2.0) S_2) ?x924 ?x1332) 0.0)))
 (let (($x144740 (or $x71 $x329 (<= (+ ?x395 A_4 ?x388 ?x1331 ?x929 ?x451 ?x924 ?x1332) 0.0))))
 (let (($x142525 (or $x71 (<= (+ ?x4113 (* (/ 2.0 3.0) A_4) ?x4115 ?x403 (* (/ 1.0 3.0) S_1)) 0.0) $x57423 $x58951)))
 (let (($x140064 (or $x81 (= (+ ?x395 ?x399 ?x407 L_2 L_4 ?x2205 ?x2204) 0.0) (not $x58951))))
 (let ((?x11927 (* (- 5.0) L_3)))
 (let ((?x11904 (* 5.0 A_3)))
 (let ((?x7803 (* 4.0 L_4)))
 (let ((?x7796 (* (- 4.0) A_4)))
 (let (($x144295 (or $x81 (<= (+ ?x395 ?x399 L_4 ?x2205 (* (- 1.0) S_3) ?x2204) 0.0))))
 (let ((?x4104 (* (/ 1.0 3.0) S_1)))
 (let ((?x4106 (* (- (/ 2.0 3.0)) L_4)))
 (let ((?x4098 (* (/ 2.0 3.0) A_4)))
 (let ((?x4100 (* (- (/ 2.0 3.0)) Q_4)))
 (let (($x144855 (or $x81 $x293 (<= (+ ?x395 ?x399 L_4 ?x2205 (* (- 1.0) S_3) ?x881) 0.0))))
 (let (($x2790 (<= (+ (* 3.0 Q_4) ?x2203 ?x2206 ?x411 ?x2792 L_1) 0.0)))
 (let (($x8550 (<= (+ (* (/ 3.0 2.0) Q_4) ?x5597 (* (/ 3.0 2.0) L_4) ?x411 ?x8165 L_1 ?x477) 0.0)))
 (let ((?x7790 (* 4.0 S_3)))
 (let ((?x3300 (* 3.0 L_4)))
 (let ((?x3334 (* (- 3.0) A_4)))
 (let ((?x2211 (* 3.0 Q_4)))
 (let (($x58012 (<= 0.0 (+ ?x2199 A_4 ?x388 ?x1331 A_2 ?x490 ?x1332))))
 (let (($x3342 (<= (+ ?x2199 ?x3334 ?x3300 (* 5.0 A_2) ?x2065 (* (- 5.0) L_2)) 0.0)))
 (let (($x142670 (or $x81 (<= (+ ?x2199 ?x399 L_4 ?x986 (* (- 2.0) S_2) ?x989) 0.0) $x58012)))
 (let (($x58013 (not $x58012)))
 (let (($x142294 (or $x81 (<= (+ ?x2181 ?x3334 ?x2212 ?x2213 ?x3300 A_2 ?x1008 ?x490) 0.0) $x58013)))
 (let (($x140528 (or $x81 (<= (+ Q_4 ?x2203 ?x2204 ?x2205 ?x2206 A_2 ?x451 ?x490) 0.0) $x58013)))
 (let (($x58178 (<= 0.0 (+ ?x2199 ?x399 L_4 ?x986 ?x883 ?x887 ?x989))))
 (let (($x141555 (or $x1150 (<= (+ ?x996 Q_4 ?x399 ?x995 L_4 ?x2804 ?x2805) 0.0) (not (<= 0.0 ?x5028)))))
 (let (($x140290 (or $x81 (<= (+ ?x399 ?x477 A_3 L_4 A_2 ?x440 ?x490) 0.0) $x58013)))
 (let (($x72165 (or $x81 (<= (+ Q_4 ?x2203 ?x2204 ?x2205 ?x2206 A_2 ?x1033 ?x490 L_0) 0.0) $x58013)))
 (let ((?x4079 (* (/ 2.0 3.0) L_4)))
 (let ((?x4094 (* (- (/ 2.0 3.0)) A_4)))
 (let ((?x4082 (* (/ 2.0 3.0) Q_4)))
 (let (($x61623 (or $x1150 (<= (+ ?x4082 ?x4094 ?x4079 (* (/ 5.0 3.0) S_1) ?x1008) 0.0) (<= (+ ?x2181 ?x2203 ?x2204 ?x2205 ?x2206 S_1 ?x1008) 0.0) (<= (+ Q_4 ?x399 A_2 ?x490 L_4 S_1 ?x1008) 0.0))))
 (let (($x61438 (or $x1150 (<= (+ Q_4 ?x399 L_4 ?x1033 (* 2.0 S_2) L_0) 0.0) (<= (+ ?x2181 ?x2203 ?x2204 ?x2205 ?x2206 ?x1033 S_2 L_0) 0.0))))
 (let (($x11946 (<= (+ ?x395 ?x3334 ?x3300 (* 4.0 A_3) ?x1033 (* (- 4.0) L_3) L_0) 0.0)))
 (let (($x11902 (<= (+ ?x395 ?x3334 ?x3300 (* 4.0 A_3) ?x451 (* (- 4.0) L_3)) 0.0)))
 (let ((?x2338 (+ ?x2199 ?x2261 ?x2263 ?x2260 A_1 ?x503 ?x2262)))
 (let (($x47488 (<= 0.0 ?x2338)))
 (let (($x68127 (or $x81 (= (+ ?x887 ?x2199 ?x399 ?x883 L_4 ?x986 ?x989) 0.0) $x47488 (not $x58178))))
 (let (($x71856 (or $x81 (<= (+ ?x399 A_3 L_4 A_2 ?x411 L_1 ?x881) 0.0) $x58013)))
 (let (($x139354 (or $x1069 (<= (+ ?x395 A_4 L_3 ?x403 ?x388 (* (- 1.0) S_3) S_1) 0.0))))
 (let (($x69158 (or $x3701 (<= (+ ?x395 A_4 ?x407 L_2 ?x388 (* (- 2.0) S_2) ?x4754) 0.0))))
 (let ((?x2796 (* (- 3.0) S_4)))
 (let ((?x5362 (* (- (/ 9.0 4.0)) L_4)))
 (let ((?x5370 (* (/ 9.0 4.0) A_4)))
 (let ((?x5347 (* (- (/ 9.0 4.0)) Q_4)))
 (let (($x5357 (<= (+ ?x5347 ?x5370 ?x5362 ?x2796 ?x5360) 0.0)))
 (let (($x942 (<= (+ ?x395 A_4 ?x388 ?x407 A_1 ?x418 ?x503 L_2) 0.0)))
 (let (($x59334 (<= (+ Q_4 ?x399 A_2 ?x490 L_4) (- 10.0))))
 (let (($x57858 (<= (+ (* (/ 3.0 4.0) Q_4) (* (- (/ 3.0 4.0)) A_4) (* (/ 3.0 4.0) L_4) ?x5360) (- 15.0))))
 (let (($x60302 (or $x1150 $x57591 (<= (+ ?x503 Q_4 ?x399 A_1 L_4) (- 15.0)) $x57858 $x59334)))
 (let ((?x5377 (* (/ 3.0 2.0) S_0)))
 (let ((?x2780 (* (- 3.0) S_3)))
 (let ((?x5376 (* (- (/ 3.0 2.0)) L_4)))
 (let ((?x5353 (* (/ 3.0 2.0) A_4)))
 (let ((?x5341 (* (- (/ 3.0 2.0)) Q_4)))
 (let (($x142938 (or $x1069 (<= (+ ?x924 ?x395 A_4 ?x929 ?x388 ?x2780) 0.0) (<= (+ ?x5341 ?x5353 ?x5376 ?x2780 ?x5377) 0.0))))
 (let (($x60292 (or $x1150 $x47488 (<= (+ ?x887 Q_4 ?x399 ?x883 L_4 (* 3.0 S_2)) 0.0))))
 (let (($x60288 (or $x1150 (<= (+ ?x2211 ?x3334 ?x3300 (* 5.0 S_2) ?x2065) 0.0) (<= (+ ?x2211 ?x3334 ?x2212 ?x2213 ?x3300 S_2 ?x1008) 0.0))))
 (let (($x141982 (or $x1150 (<= (+ (* 4.0 Q_4) ?x7796 ?x7803 (* 5.0 S_3) ?x1008) 0.0))))
 (let (($x140533 (or $x61 (<= (+ ?x395 A_4 ?x388 ?x994 ?x995 ?x1033 ?x996 ?x997 L_0) 0.0))))
 (let (($x58578 (<= 0.0 (+ ?x395 A_4 ?x388 ?x2260 ?x986 ?x411 L_1 ?x989 ?x2262))))
 (let (($x143151 (or $x295 (= (+ L_1 ?x395 A_4 ?x411 ?x388 ?x2260 ?x986 ?x989 ?x2262) 0.0) (not $x58578))))
 (let (($x139051 (or $x71 (<= (+ ?x395 A_4 ?x388 ?x2341 ?x1000 ?x1033 ?x1003 ?x2632 L_0) 0.0))))
 (let (($x141309 (or $x71 (= (+ ?x399 L_4 ?x2205 ?x407 L_2 ?x2204) 0.0) (not (<= 0.0 (+ A_4 ?x1331 A_2 ?x388 ?x490 ?x1332))))))
 (let (($x140071 (or $x61 $x1150 (<= (+ Q_4 ?x399 L_4 A_3 ?x407 S_3 L_2 ?x477) 0.0))))
 (let (($x2676 (<= (+ ?x395 A_4 ?x388 ?x1331 ?x879 (* (- 1.0) S_3) ?x881 ?x1332) 0.0)))
 (let ((?x2985 (* (- 5.0) L_2)))
 (let ((?x2994 (* 5.0 A_2)))
 (let (($x70804 (or $x71 $x1352 (<= (+ ?x395 A_4 ?x388 ?x1331 ?x929 ?x1033 ?x924 ?x1332 L_0) 0.0))))
 (let (($x68250 (or $x71 $x329 (<= (+ ?x2199 ?x2261 ?x2263 ?x2260 ?x981 (* (- 2.0) S_2) ?x982 ?x2262) 0.0))))
 (let (($x2308 (<= (+ Q_4 ?x399 L_4 A_3 ?x411 S_2 L_1 ?x477) 0.0)))
 (let (($x140018 (or $x51 $x71 (= (+ ?x403 ?x879 ?x411 L_1 ?x881 L_3) 0.0) (not (<= 0.0 (+ ?x403 ?x879 ?x411 ?x881 L_1 L_3))))))
 (let (($x2318 (<= (+ ?x2199 ?x2261 ?x2263 ?x403 A_1 (* (- 2.0) S_4) ?x503 L_3) 0.0)))
 (let (($x68404 (or $x51 $x1150 (<= (+ Q_4 ?x399 L_4 ?x2205 ?x883 S_0 ?x887 ?x2204) 0.0))))
 (let (($x72344 (or $x61 $x1150 (<= (+ Q_4 ?x399 L_4 ?x2213 ?x980 S_1 ?x983 ?x2212) 0.0))))
 (let ((?x2829 (* (- 4.0) L_3)))
 (let ((?x2971 (* 4.0 A_3)))
 (let (($x70685 (or $x61 $x1150 (<= (+ Q_4 ?x399 L_4 ?x2971 ?x994 S_0 ?x997 ?x2829) 0.0) $x58578)))
 (let (($x69259 (or $x61 $x1150 (<= (+ Q_4 ?x399 L_4 ?x2205 ?x889 S_2 ?x885 ?x2204) 0.0))))
 (let ((?x4101 (* (/ 2.0 3.0) S_1)))
 (let ((?x429 (* (- 1.0) S_3)))
 (let ((?x4085 (* (- (/ 1.0 3.0)) L_4)))
 (let ((?x4099 (* (/ 1.0 3.0) A_4)))
 (let ((?x4075 (* (- (/ 1.0 3.0)) Q_4)))
 (let (($x143701 (or $x71 (<= (+ ?x395 A_4 ?x388 ?x403 A_2 ?x418 ?x490 L_3) 0.0))))
 (let (($x139137 (or $x51 (<= (+ Q_4 ?x399 L_4 A_2 ?x411 S_3 L_1 ?x490) 0.0) $x1150)))
 (let (($x141216 (or $x81 $x1646 (<= (+ ?x2199 A_4 ?x388 A_2 (* (- 2.0) S_4) ?x490) 0.0))))
 (let (($x58207 (<= 0.0 (+ ?x407 (* (/ 1.0 2.0) A_1) (* (/ 1.0 2.0) S_4) (* (- (/ 1.0 2.0)) L_1) L_2))))
 (let (($x57998 (or (= Q_4 0.0) (not $x1150))))
 (let (($x144957 (or $x61 $x327 (= (+ Q_4 ?x399 ?x477 A_3 L_4 A_2 ?x411 L_1 ?x490) 0.0))))
 (let (($x141913 (or $x51 $x71 $x81 $x329 (= (+ ?x2203 ?x2206 ?x2213 ?x411 L_1 ?x2212) 0.0))))
 (let (($x57124 (or $x81 (>= Q_4 5.0))))
 (let (($x71546 (or $x51 $x81 $x329 (= (+ ?x399 L_4 ?x986 ?x883 ?x887 ?x989) 0.0) (not (<= (+ A_4 ?x388 ?x980 ?x929 ?x924 ?x983) 0.0)))))
 (let (($x108 (>= S_1 S_0)))
 (let (($x111 (>= S_2 S_1)))
 (let (($x114 (>= S_3 S_2)))
 (let (($x117 (>= S_4 S_3)))
 (let (($x119 (>= A_1 A_0)))
 (let (($x120 (>= A_2 A_1)))
 (let (($x121 (>= A_3 A_2)))
 (let (($x122 (>= A_4 A_3)))
 (and $x122 $x121 $x120 $x119 $x117 $x114 $x111 $x108 (or $x367 $x51) (or $x61 (<= (+ ?x407 A_1 ?x503 L_2) (- 5.0))) (or $x71 $x293) (or $x81 $x57423) (or $x61 (not $x56870)) $x71546 (or $x51 (<= (+ ?x411 S_1 L_1) (- 5.0))) (or $x61 (<= (+ A_4 ?x388 ?x980 ?x929 ?x924 ?x983) 0.0)) $x57124 (or $x81 (<= (+ ?x395 A_1 ?x440 ?x503) 0.0)) (or $x51 (<= (+ Q_4 ?x411 S_1 L_1) 0.0)) $x141913 (or $x61 (<= (+ Q_4 ?x407 S_2 L_2) 0.0)) (or $x61 (<= (+ ?x395 A_4 ?x388 ?x889 ?x929 ?x429 ?x924 ?x885) 0.0)) (or $x61 $x942) (or $x61 (<= (+ ?x395 A_4 ?x388 ?x980 ?x929 ?x924 ?x983) (- 5.0))) $x144957 (or $x61 (<= (+ ?x395 A_4 ?x388 ?x980 ?x981 ?x440 ?x982 ?x983) 0.0)) (or $x1150 (<= (+ ?x2211 ?x3334 ?x3300 ?x2792) (- 15.0))) $x57998 (<= (+ L_1 ?x411 S_1) 0.0) (or $x1150 (<= (+ ?x2181 ?x2203 ?x2206 ?x2792 ?x440) 0.0)) (or $x81 (<= (+ ?x395 A_2 ?x429 ?x490) 0.0)) (or $x61 (<= (+ ?x407 S_2 L_2) (- 5.0))) (or $x1150 $x57591 (<= (+ Q_4 ?x399 L_4 S_2) (- 10.0))) (or $x1646 (<= (+ ?x503 ?x2199 ?x2261 A_1 ?x2263 ?x2796) 0.0) $x5357 $x58207) (or $x1646 (<= (+ ?x395 A_4 ?x388 (* (- 2.0) S_4) S_2) 0.0)) $x141216 (or $x51 (<= (+ A_3 ?x411 ?x418 S_1 L_1 ?x477) 0.0)) $x139137 (or $x71 (<= (+ ?x395 A_4 ?x388 ?x1331 A_2 ?x490 ?x1332) (- 5.0))) (or $x1150 $x2308 (not $x47488)) (or $x71 (<= (+ ?x403 A_2 ?x490 L_3) (- 5.0))) $x143701 (or $x61 (<= (+ ?x4075 ?x4099 ?x4085 ?x407 ?x4101 L_2) (- 5.0))) (or $x1069 (<= (+ ?x4075 ?x4099 ?x4085 ?x429 ?x4101) 0.0)) $x69259 $x70685 (or $x3701 (<= (+ ?x395 A_4 L_3 ?x403 ?x388 ?x440 S_0) 0.0)) (or $x3701 (<= (+ ?x5387 ?x5389 ?x5390 ?x440 ?x5360) 0.0)) (or $x1150 $x8427 $x58666) (or $x81 (<= (+ ?x395 A_3 ?x418 ?x477) 0.0)) (or $x81 (<= (+ ?x399 L_4 A_3 ?x477) (- 5.0))) $x72344 $x68404 (or $x71 (<= (+ Q_4 L_4 ?x403 S_3) 0.0) $x57423) (or $x1150 $x47488 $x4583) (or $x71 (<= (+ ?x5545 ?x5173 ?x5601 ?x403 ?x8174) 0.0) $x57423) (or $x71 (<= (+ Q_4 ?x403 S_3 L_3) 0.0)) (or $x71 $x329 $x2318) (or $x81 (<= (+ ?x399 L_4 A_2 ?x490) (- 10.0))) (or $x71 $x327 $x58951) (or $x61 (<= 0.0 (+ ?x403 ?x879 ?x411 ?x881 L_1 L_3))) (or $x71 (<= (+ ?x403 S_3 L_3) (- 5.0))) $x140018 (or $x51 $x1150 $x2308) (or $x71 (<= ?x8177 (- 5.0))) $x68250 $x70804 (or $x71 (<= (+ ?x395 A_4 ?x388 ?x2260 ?x986 ?x440 ?x989 ?x2262) 0.0)) (or $x71 (<= (+ ?x395 A_4 ?x388 ?x2384 ?x2994 ?x1008 ?x2985 ?x2295) 0.0)) (or $x71 $x2676) $x140071 (or $x71 $x1069 $x2100) (or $x71 (<= (+ ?x403 A_1 ?x503 L_3) (- 10.0))) (or $x61 $x81 (<= 0.0 (+ A_4 ?x1331 A_2 ?x388 ?x490 ?x1332))) $x141309 $x139051 $x143151 $x140533 (or $x61 $x1150 (<= (+ ?x2181 ?x399 L_4 ?x407 ?x2303 L_2) 0.0)) (or $x51 (<= (+ A_2 ?x883 S_0 ?x887 ?x490) (- 5.0))) (or $x51 $x2790 $x57420) (or $x1150 (<= (+ ?x2211 ?x3334 ?x3300 ?x7790 ?x451) 0.0)) (or $x1150 (<= (+ Q_4 ?x399 ?x407 L_2 L_4 ?x2303) 0.0)) (or $x1646 (<= (+ ?x4100 ?x4098 ?x4106 ?x418 ?x4104) 0.0) $x9921) $x141982 $x60288 $x60292 $x142938 $x60302 (or $x1150 $x57591 (<= (+ ?x4113 ?x4114 ?x4115 ?x4104) (- 5.0)) $x59334) (or $x61 (<= (+ A_4 L_3 ?x403 ?x388 ?x407 S_1 L_2) 0.0)) (or $x942 $x1646 $x5357 $x9921) $x69158 (or $x71 $x327 $x9921) $x139354 $x71856 $x68127 (or $x81 $x11902) (or $x81 $x11946) (or $x71 $x329 (<= ?x2338 (- 10.0))) $x61438 $x61623 $x72165 $x140290 (or $x81 (<= (+ ?x395 ?x399 L_4 ?x879 ?x1033 ?x881 L_0) 0.0) $x58012) $x141555 (or $x1150 $x61 (<= (+ Q_4 ?x399 L_4 ?x407 ?x2303 L_2) (- 5.0))) (or $x61 (<= (+ Q_4 A_4 ?x388 ?x889 S_0 ?x885) 0.0) $x58178) (or $x81 (<= (+ ?x395 ?x399 L_4 ?x879 ?x451 ?x881) 0.0) $x58012) $x140528 (or $x61 (<= (+ ?x2181 A_4 ?x388 ?x980 ?x2296 ?x983) 0.0)) $x142294 $x142670 (or $x71 (<= (+ ?x395 A_4 ?x388 ?x2341 ?x1000 ?x451 ?x1003 ?x2632) 0.0)) (or $x81 $x3342 $x58012) (or $x1150 (<= (+ ?x2211 ?x3334 ?x3300 ?x1033 ?x7790 L_0) 0.0)) (or $x51 $x1150 $x2110 $x8550 $x57423) (or $x51 $x1150 $x2790) $x144855 (or $x71 (<= (+ ?x4100 ?x4098 ?x4106 ?x403 ?x4104 L_3) (- 5.0)) $x59371) $x144295 (or $x81 (<= (+ ?x395 ?x7796 ?x7803 ?x11904 ?x1008 ?x11927) 0.0)) $x140064 $x142525 (or $x71 $x57423 (<= 0.0 (+ ?x2203 ?x2213 ?x411 L_1 ?x477)) $x58951) $x144740 (or $x71 $x327 $x11768) (or $x71 $x327 $x1328) (or $x1150 (<= (+ L_1 ?x2181 ?x2203 ?x411 ?x2206 ?x2792) 0.0)) (or $x71 (<= ?x2338 (- 10.0)) $x59371) $x69164 (or $x81 (<= (+ ?x395 ?x2203 ?x2206 ?x2213 ?x440 ?x2212) 0.0)) $x68926 $x74567 (or $x1150 $x4583 $x8427) $x62148 (or $x71 $x329 $x1150 $x2144) $x68323 (or $x51 $x1150 $x11451) (or $x71 $x1309 (<= (+ ?x2261 ?x2263 ?x2260 A_1 ?x2262 ?x564) 0.0) $x58951) (or $x51 $x81 $x1305 (<= (+ ?x2203 ?x2206 ?x2213 ?x411 L_1 ?x989) 0.0)) $x77955 (or $x51 (<= (+ A_4 L_3 ?x403 ?x388 ?x411 S_0 L_1) 0.0)) (or $x61 (<= (+ ?x395 A_4 ?x388 ?x1006 ?x1007 ?x1008 ?x1009 ?x1010) 0.0)) $x68918 (or $x81 (<= (+ ?x399 L_4 A_1 ?x503) (- 15.0)) $x57591) $x67745 $x61647 $x140268 $x71287 (or $x51 $x2656) (or $x51 $x1150 $x2110 $x2765) (or $x71 (<= (+ Q_4 A_4 ?x388 ?x1331 S_2 ?x1332) 0.0)) $x71159 (or (<= (+ ?x395 A_4 ?x388 ?x994 ?x995 ?x451 ?x996 ?x997) 0.0) $x56870) $x139736 $x68666 (or $x71 (<= 0.0 ?x5405) $x58544 $x59371) $x144465 (or $x51 (<= (+ A_3 ?x407 ?x411 L_2 S_0 L_1 ?x477) 0.0)) (or $x71 (<= (+ Q_4 ?x2261 ?x2263 ?x2260 S_1 ?x2262) 0.0) $x58951) $x140649 (or $x71 $x11925 $x58951 $x59242) $x71472 (or $x81 $x1069 $x2197) $x63139 $x141429 $x141296 $x139291 $x139615 $x67618 (or $x51 (<= ?x21019 (- 5.0))) $x141762 (or $x51 $x1150 (<= ?x5028 (- 5.0))) (or $x51 $x1150 (<= (+ ?x5545 ?x5597 ?x5601 ?x411 ?x8165 L_1) (- 5.0)) $x58665) (or $x51 (<= ?x5405 (- 5.0))) $x34301 (or $x61 $x64192) (or $x1069 (<= (+ ?x1033 ?x429 ?x2296 L_0) 0.0)) (or $x3701 (<= (+ ?x440 S_0) (- 5.0))) (or $x1069 (<= (+ ?x429 S_1) (- 5.0))) (or $x51 $x64429) $x141585 (or $x61 (<= (+ ?x407 ?x1033 ?x2296 L_2 L_0) (- 5.0))) $x141826 $x70170 (or $x61 (<= (+ ?x889 A_1 S_3 ?x503 ?x885) (- 5.0))) $x66393 (or $x61 (<= (+ ?x994 ?x995 S_3 ?x1008 ?x996 ?x997) 0.0)) (or $x61 (<= (+ ?x980 ?x981 ?x1033 S_3 ?x982 ?x983 L_0) 0.0)) (or $x61 (<= (+ ?x980 ?x981 S_2 ?x1008 ?x982 ?x983) 0.0)) (or $x61 (<= (+ ?x889 ?x929 S_1 ?x1008 ?x924 ?x885) 0.0)) (or $x51 $x1646 $x33725) (or $x61 (<= (+ ?x889 ?x929 ?x1033 S_2 ?x924 ?x885 L_0) 0.0)) $x142332 (or $x1646 (<= (+ (* (- 2.0) S_4) (* 3.0 S_2) ?x451) 0.0)) (or $x61 (<= (+ ?x889 ?x929 S_2 ?x451 ?x924 ?x885) 0.0)) (or $x61 (<= (+ ?x889 ?x929 S_3 ?x440 ?x924 ?x885) 0.0)) $x140182 (or $x3701 (<= (+ (* (/ 1.0 3.0) S_3) ?x440 (* (/ 2.0 3.0) S_0)) 0.0)) (or $x61 (<= (+ ?x980 ?x981 S_3 ?x451 ?x982 ?x983) 0.0)) (or $x71 (<= (+ ?x403 A_1 S_3 ?x440 ?x503 L_3) 0.0)) (or $x1646 (<= (+ ?x2796 (* 4.0 S_2) ?x1008) 0.0)) (or $x51 (<= (+ ?x411 S_0 L_1) (- 10.0))) (or $x1646 (<= (+ ?x418 S_2) (- 5.0))) (or $x61 (<= (+ ?x407 S_1 L_2) (- 10.0))) $x142110 $x141395 (or $x61 $x44847) $x142102 (or $x71 $x1352 (<= (+ ?x403 A_1 ?x8943 ?x2296 ?x503 L_3 ?x9360) 0.0)) $x65580 (or $x1646 $x36487 (<= (+ (* (- (/ 1.0 2.0)) S_4) (* (/ 1.0 2.0) S_1)) (- 5.0))) $x47423 $x141485 (or $x1646 (<= (+ ?x5675 (* (- (/ 1.0 2.0)) S_4) ?x2662 S_2) 0.0)) (or $x61 $x60211) (or $x61 (<= (+ ?x2205 ?x889 ?x418 S_1 ?x885 ?x2204) 0.0)) (or $x61 $x293 $x17400 $x40150) $x49805 (or $x51 $x1646 (<= (+ ?x13728 ?x5675 ?x418 S_2 ?x2662 ?x13730) 0.0)) (or $x1069 $x18006 (<= (+ (* (- (/ 1.0 2.0)) S_3) (* (/ 1.0 2.0) S_0)) (- 5.0))) (or $x61 $x293 $x63549 (<= (+ ?x2205 ?x980 S_0 L_2) (- 5.0))) (or $x71 (<= (+ ?x2260 ?x986 ?x1033 S_3 ?x989 ?x2262 L_0) 0.0)) $x66288 $x140120 (or $x51 (<= (+ ?x13728 ?x6507 S_0 ?x6508 ?x13730) (- 5.0))) (or $x61 (<= (+ A_3 ?x889 S_1 ?x885 ?x477) (- 5.0))) $x141537 (or $x71 (<= (+ ?x1331 ?x879 S_3 ?x440 ?x881 ?x1332) 0.0)) $x139479 (or $x61 $x63549 (<= (+ ?x2205 ?x980 S_0 ?x983 ?x2204) (- 5.0))) (or $x61 $x40150 (<= (+ ?x2213 ?x980 ?x418 S_0 ?x983 ?x2212) 0.0)) (or $x71 (<= (+ ?x2341 ?x1000 S_3 ?x1008 ?x1003 ?x2632) 0.0)) (or $x3701 (<= (+ ?x407 S_3 L_2 ?x440 S_0) 0.0)) $x66582 $x141986 (or $x71 $x41482) (or $x71 $x367 $x49847 $x64927) (or $x71 $x367 $x1352 $x49847) (or $x71 $x367 $x1069 $x49847) $x66877 (or $x71 $x65905) $x66916 (or $x71 $x38714) $x143305 $x67000 (or $x71 (<= (+ ?x1331 ?x879 S_2 ?x451 ?x881 ?x1332) 0.0)) $x67015 (or $x71 $x2144 $x34930) (or $x71 $x1352 $x2144) (or $x71 $x1328 $x2144) (or $x71 $x1069 $x2144) (or $x51 (<= (+ ?x2205 ?x883 ?x2457 ?x4754 ?x887 ?x2204) 0.0)) (or $x71 $x1352 $x44663) (or $x71 $x34895 $x44301) (or $x51 (<= (+ ?x13728 ?x5675 ?x440 S_0 ?x2662 ?x13730) 0.0)) (or $x71 $x34930 $x44301) (or $x71 $x1352 $x44301) (or $x71 $x44301 $x64927) (or $x51 $x41196) (or $x71 $x2144 $x64927) (or $x71 $x1309 $x1328 $x49847) (or $x71 $x66753 (<= (+ ?x403 ?x2296 ?x1008 L_3) (- 5.0))) (or $x71 $x34895 $x41853) (or $x71 $x2144 $x34895) (or $x71 $x34895 $x40974) (or $x71 $x34930 $x40974) (or $x71 $x1069 $x41853) (or $x71 $x1352 $x41853) (or $x71 $x41853 $x64927) (or $x71 $x1069 $x40974) (or $x71 (<= (+ ?x1331 ?x929 (* 2.0 S_2) ?x1337 ?x924 ?x1332) 0.0)) (or $x71 $x1328 $x44301) (or $x71 $x1328 (<= (+ ?x2260 ?x981 ?x2303 ?x1337 ?x982 ?x2262) 0.0)) $x67380 (or $x71 $x1352 $x40974) (or $x71 $x40974 $x64927) (or $x71 $x44843) (or $x71 $x1328 $x41853) (or $x51 $x67317) (or $x51 $x1646 (<= (+ ?x879 ?x883 ?x418 S_1 ?x887 ?x881) 0.0)) (or $x51 $x65777) $x34 (<= (+ Q_4 ?x399 L_4 S_4) 0.0) (<= (+ L_3 ?x403 S_3) 0.0) (<= (+ ?x1033 S_0 L_0) 0.0) (<= (+ ?x407 L_2 S_2) 0.0))))))))))))))))))))))))))))))))))))))))))))))))))))))))))))))))))))))))))))))))))))))))))))))))))))))))))))))))))))))))))))))))))))))))))))))))))))))))))))))))))))))))))))))))))))))))))))))))))))))))))))))))))))))))))))))))))))))))))))))))))))))))))))))))))))))))))))))))))))))))))))))))))))))))))))))))))))))))))))))))))))))))))))))))
(check-sat)
